nK = 465;
nT = 4;
nI = 7;
L = 35;
TT = 124;
np = 1;
nc = 3;
b = [70, 53, 47, 26, 31, 36, 54];
d = [120, 94, 106, 126, 68, 71, 123];
m = [1.4, 1.5, 1.6, 1.3, 1.1, 1.9, 2.2];
pt = [0.35, 0.24, 0.24, 0.35];
st = [16.1, 12.72, 12.48, 14];
arc = {<1, 0, 1, 1, 0, 0, 0, [1, 1, 1, 1]>, <2, 1, 2, 1, 0, 0, 0, [1, 1, 1, 1]>, <3, 2, 3, 1, 0, 0, 0, [1, 1, 1, 1]>, <4, 3, 4, 1, 0, 0, 0, [1, 1, 1, 1]>, <5, 4, 5, 1, 0, 0, 0, [1, 1, 1, 1]>, <6, 5, 6, 1, 0, 0, 0, [1, 1, 1, 1]>, <7, 6, 7, 1, 0, 0, 0, [1, 1, 1, 1]>, <8, 7, 8, 1, 0, 0, 0, [1, 1, 1, 1]>, <9, 8, 9, 1, 0, 0, 0, [1, 1, 1, 1]>, <10, 9, 10, 1, 0, 0, 0, [1, 1, 1, 1]>, <11, 10, 11, 1, 0, 0, 0, [1, 1, 1, 1]>, <12, 11, 12, 1, 0, 0, 0, [1, 1, 1, 1]>, <13, 12, 13, 1, 0, 0, 0, [1, 1, 1, 1]>, <14, 13, 14, 1, 0, 0, 0, [1, 1, 1, 1]>, <15, 14, 15, 1, 0, 0, 0, [1, 1, 1, 1]>, <16, 15, 16, 1, 0, 0, 0, [1, 1, 1, 1]>, <17, 16, 17, 1, 0, 0, 0, [1, 1, 1, 1]>, <18, 17, 18, 1, 0, 0, 0, [1, 1, 1, 1]>, <19, 18, 19, 1, 0, 0, 0, [1, 1, 1, 1]>, <20, 19, 20, 1, 0, 0, 0, [1, 1, 1, 1]>, <21, 20, 21, 1, 0, 0, 0, [1, 1, 1, 1]>, <22, 21, 22, 1, 0, 0, 0, [1, 1, 1, 1]>, <23, 22, 23, 1, 0, 0, 0, [1, 1, 1, 1]>, <24, 23, 24, 1, 0, 0, 0, [1, 1, 1, 1]>, <25, 24, 25, 1, 0, 0, 0, [1, 1, 1, 1]>, <26, 25, 26, 1, 0, 0, 0, [1, 1, 1, 1]>, <27, 26, 27, 1, 0, 0, 0, [1, 1, 1, 1]>, <28, 27, 28, 1, 0, 0, 0, [1, 1, 1, 1]>, <29, 28, 29, 1, 0, 0, 0, [1, 1, 1, 1]>, <30, 29, 30, 1, 0, 0, 0, [1, 1, 1, 1]>, <31, 30, 31, 1, 0, 0, 0, [1, 1, 1, 1]>, <32, 31, 32, 1, 0, 0, 0, [1, 1, 1, 1]>, <33, 32, 33, 1, 0, 0, 0, [1, 1, 1, 1]>, <34, 33, 34, 1, 0, 0, 0, [1, 1, 1, 1]>, <35, 34, 35, 1, 0, 0, 0, [1, 1, 1, 1]>, <36, 2, 17, 15, 1, 0, 1, [1, 1, 1, 0]>, <37, 3, 18, 15, 1, 0, 1, [1, 1, 1, 0]>, <38, 4, 19, 15, 1, 0, 1, [1, 1, 1, 0]>, <39, 5, 20, 15, 1, 0, 1, [1, 1, 1, 0]>, <40, 6, 21, 15, 1, 0, 1, [1, 1, 1, 0]>, <41, 11, 26, 15, 1, 0, 1, [1, 1, 1, 0]>, <42, 12, 27, 15, 1, 0, 1, [1, 1, 1, 0]>, <43, 13, 28, 15, 1, 0, 1, [1, 1, 1, 0]>, <44, 14, 29, 15, 1, 0, 1, [1, 1, 1, 0]>, <45, 15, 30, 15, 1, 0, 1, [1, 1, 1, 0]>, <46, 16, 31, 15, 1, 0, 1, [1, 1, 1, 0]>, <47, 17, 32, 15, 1, 0, 1, [1, 1, 1, 0]>, <48, 18, 33, 15, 1, 0, 1, [1, 1, 1, 0]>, <49, 19, 34, 15, 1, 0, 1, [1, 1, 1, 0]>, <50, 20, 35, 15, 1, 0, 1, [1, 1, 1, 0]>, <51, 5, 16, 11, 2, 0, 1, [1, 0, 1, 1]>, <52, 6, 17, 11, 2, 0, 1, [1, 0, 1, 1]>, <53, 14, 25, 11, 2, 0, 1, [1, 0, 1, 1]>, <54, 15, 26, 11, 2, 0, 1, [1, 0, 1, 1]>, <55, 20, 31, 11, 2, 0, 1, [1, 0, 1, 1]>, <56, 21, 32, 11, 2, 0, 1, [1, 0, 1, 1]>, <57, 22, 33, 11, 2, 0, 1, [1, 0, 1, 1]>, <58, 23, 34, 11, 2, 0, 1, [1, 0, 1, 1]>, <59, 24, 35, 11, 2, 0, 1, [1, 0, 1, 1]>, <60, 5, 15, 10, 3, 0, 0, [1, 1, 1, 0]>, <61, 6, 16, 10, 3, 0, 0, [1, 1, 1, 0]>, <62, 14, 24, 10, 3, 0, 0, [1, 1, 1, 0]>, <63, 15, 25, 10, 3, 0, 0, [1, 1, 1, 0]>, <64, 21, 31, 10, 3, 0, 0, [1, 1, 1, 0]>, <65, 22, 32, 10, 3, 0, 0, [1, 1, 1, 0]>, <66, 23, 33, 10, 3, 0, 0, [1, 1, 1, 0]>, <67, 24, 34, 10, 3, 0, 0, [1, 1, 1, 0]>, <68, 4, 17, 13, 4, 0, 1, [0, 1, 1, 1]>, <69, 5, 18, 13, 4, 0, 1, [0, 1, 1, 1]>, <70, 6, 19, 13, 4, 0, 1, [0, 1, 1, 1]>, <71, 13, 26, 13, 4, 0, 1, [0, 1, 1, 1]>, <72, 14, 27, 13, 4, 0, 1, [0, 1, 1, 1]>, <73, 15, 28, 13, 4, 0, 1, [0, 1, 1, 1]>, <74, 18, 31, 13, 4, 0, 1, [0, 1, 1, 1]>, <75, 19, 32, 13, 4, 0, 1, [0, 1, 1, 1]>, <76, 20, 33, 13, 4, 0, 1, [0, 1, 1, 1]>, <77, 21, 34, 13, 4, 0, 1, [0, 1, 1, 1]>, <78, 22, 35, 13, 4, 0, 1, [0, 1, 1, 1]>, <79, 5, 15, 10, 5, 0, 1, [1, 1, 0, 1]>, <80, 6, 16, 10, 5, 0, 1, [1, 1, 0, 1]>, <81, 14, 24, 10, 5, 0, 1, [1, 1, 0, 1]>, <82, 15, 25, 10, 5, 0, 1, [1, 1, 0, 1]>, <83, 21, 31, 10, 5, 0, 1, [1, 1, 0, 1]>, <84, 22, 32, 10, 5, 0, 1, [1, 1, 0, 1]>, <85, 23, 33, 10, 5, 0, 1, [1, 1, 0, 1]>, <86, 24, 34, 10, 5, 0, 1, [1, 1, 0, 1]>, <87, 5, 16, 11, 6, 0, 0, [1, 1, 1, 0]>, <88, 6, 17, 11, 6, 0, 0, [1, 1, 1, 0]>, <89, 14, 25, 11, 6, 0, 0, [1, 1, 1, 0]>, <90, 15, 26, 11, 6, 0, 0, [1, 1, 1, 0]>, <91, 20, 31, 11, 6, 0, 0, [1, 1, 1, 0]>, <92, 21, 32, 11, 6, 0, 0, [1, 1, 1, 0]>, <93, 22, 33, 11, 6, 0, 0, [1, 1, 1, 0]>, <94, 23, 34, 11, 6, 0, 0, [1, 1, 1, 0]>, <95, 24, 35, 11, 6, 0, 0, [1, 1, 1, 0]>, <96, 5, 16, 11, 7, 0, 0, [1, 1, 0, 1]>, <97, 6, 17, 11, 7, 0, 0, [1, 1, 0, 1]>, <98, 14, 25, 11, 7, 0, 0, [1, 1, 0, 1]>, <99, 15, 26, 11, 7, 0, 0, [1, 1, 0, 1]>, <100, 20, 31, 11, 7, 0, 0, [1, 1, 0, 1]>, <101, 21, 32, 11, 7, 0, 0, [1, 1, 0, 1]>, <102, 22, 33, 11, 7, 0, 0, [1, 1, 0, 1]>, <103, 23, 34, 11, 7, 0, 0, [1, 1, 0, 1]>, <104, 24, 35, 11, 7, 0, 0, [1, 1, 0, 1]>};
